numero_plantas = 3;
numero_clientes = 2;
numero_dias = 3;

costos = [20.0, 10.0, 30.0];
capacidades = [100.0, 50.0, 80.0]; 
G = 100;

demanda = [| 80.0, 80.0, 80.0,
           |80.0, 80.0, 80.0|];

pagos = [50.0, 40.0];
porcentaje_regimen_alto = [90.0, 80.0, 80.0];
max_dias_consecutivos_regimen = [2, 1, 2];